20
0 1 2 3 0 4 5 6 7 8 9 10 6 9 0 5 11 9 12 4 13 0 14 9 11 15 16 10 11 6 2 1 10 14 13 5 3 15 3 17 5 17 18 12 16 14 19 6 8 3 16 7 1 11 19 8 8 2 13 1 9 5 11 3 8 12 4 15 18 7 10 15 16 6 18 3 2 15 15 2 5 0 18 17 8 10 1 9 10 11 10 17 7 13 7 17 17 12 8 15 
